81 70 53 56 3 79 5 32 29 82 45 65 10 44 12 94 24 59 43 50 75 21 0 57 34 40 69 93 42 64 77 19 38 36 62 4 35 48 7 27 41 51 6 58 97 87 8 73 17 72 14 88 54 28 46 63 30 31 80 98 23 74 37 18 67 20 96 99 13 68 83 84 66 85 95 86 91 1 16 55 15 39 49 78 89 47 11 25 60 71 92 22 2 90 52 76 26 9 61 33 

